p cnf 256 738
1 2 3 4 0
-1 -2 -3 -4 0
5 6 7 8 0
-5 -6 -7 -8 0
9 10 11 12 0
-9 -10 -11 -12 0
13 14 15 16 0
-13 -14 -15 -16 0
17 18 19 20 0
-17 -18 -19 -20 0
21 22 23 24 0
-21 -22 -23 -24 0
25 26 27 28 0
-25 -26 -27 -28 0
29 30 31 32 0
-29 -30 -31 -32 0
33 34 35 36 0
-33 -34 -35 -36 0
37 38 39 40 0
-37 -38 -39 -40 0
41 42 43 44 0
-41 -42 -43 -44 0
45 46 47 48 0
-45 -46 -47 -48 0
49 50 51 52 0
-49 -50 -51 -52 0
53 54 55 56 0
-53 -54 -55 -56 0
57 58 59 60 0
-57 -58 -59 -60 0
61 62 63 64 0
-61 -62 -63 -64 0
65 66 67 68 0
-65 -66 -67 -68 0
69 70 71 72 0
-69 -70 -71 -72 0
73 74 75 76 0
-73 -74 -75 -76 0
77 78 79 80 0
-77 -78 -79 -80 0
81 82 83 84 0
-81 -82 -83 -84 0
85 86 87 88 0
-85 -86 -87 -88 0
89 90 91 92 0
-89 -90 -91 -92 0
93 94 95 96 0
-93 -94 -95 -96 0
97 98 99 100 0
-97 -98 -99 -100 0
101 102 103 104 0
-101 -102 -103 -104 0
105 106 107 108 0
-105 -106 -107 -108 0
109 110 111 112 0
-109 -110 -111 -112 0
113 114 115 116 0
-113 -114 -115 -116 0
117 118 119 120 0
-117 -118 -119 -120 0
121 122 123 124 0
-121 -122 -123 -124 0
125 126 127 128 0
-125 -126 -127 -128 0
129 130 131 132 0
-129 -130 -131 -132 0
133 134 135 136 0
-133 -134 -135 -136 0
137 138 139 140 0
-137 -138 -139 -140 0
141 142 143 144 0
-141 -142 -143 -144 0
145 146 147 148 0
-145 -146 -147 -148 0
149 150 151 152 0
-149 -150 -151 -152 0
153 154 155 156 0
-153 -154 -155 -156 0
157 158 159 160 0
-157 -158 -159 -160 0
161 162 163 164 0
-161 -162 -163 -164 0
165 166 167 168 0
-165 -166 -167 -168 0
169 170 171 172 0
-169 -170 -171 -172 0
173 174 175 176 0
-173 -174 -175 -176 0
177 178 179 180 0
-177 -178 -179 -180 0
181 182 183 184 0
-181 -182 -183 -184 0
185 186 187 188 0
-185 -186 -187 -188 0
189 190 191 192 0
-189 -190 -191 -192 0
193 194 195 196 0
-193 -194 -195 -196 0
197 198 199 200 0
-197 -198 -199 -200 0
201 202 203 204 0
-201 -202 -203 -204 0
205 206 207 208 0
-205 -206 -207 -208 0
209 210 211 212 0
-209 -210 -211 -212 0
213 214 215 216 0
-213 -214 -215 -216 0
217 218 219 220 0
-217 -218 -219 -220 0
221 222 223 224 0
-221 -222 -223 -224 0
225 226 227 228 0
-225 -226 -227 -228 0
229 230 231 232 0
-229 -230 -231 -232 0
233 234 235 236 0
-233 -234 -235 -236 0
237 238 239 240 0
-237 -238 -239 -240 0
241 242 243 244 0
-241 -242 -243 -244 0
245 246 247 248 0
-245 -246 -247 -248 0
249 250 251 252 0
-249 -250 -251 -252 0
253 254 255 256 0
-253 -254 -255 -256 0
1 5 9 13 0
-1 -5 -9 -13 0
2 6 10 14 0
-2 -6 -10 -14 0
3 7 11 15 0
-3 -7 -11 -15 0
4 8 12 16 0
-4 -8 -12 -16 0
17 21 25 29 0
-17 -21 -25 -29 0
18 22 26 30 0
-18 -22 -26 -30 0
19 23 27 31 0
-19 -23 -27 -31 0
20 24 28 32 0
-20 -24 -28 -32 0
33 37 41 45 0
-33 -37 -41 -45 0
34 38 42 46 0
-34 -38 -42 -46 0
35 39 43 47 0
-35 -39 -43 -47 0
36 40 44 48 0
-36 -40 -44 -48 0
49 53 57 61 0
-49 -53 -57 -61 0
50 54 58 62 0
-50 -54 -58 -62 0
51 55 59 63 0
-51 -55 -59 -63 0
52 56 60 64 0
-52 -56 -60 -64 0
65 69 73 77 0
-65 -69 -73 -77 0
66 70 74 78 0
-66 -70 -74 -78 0
67 71 75 79 0
-67 -71 -75 -79 0
68 72 76 80 0
-68 -72 -76 -80 0
81 85 89 93 0
-81 -85 -89 -93 0
82 86 90 94 0
-82 -86 -90 -94 0
83 87 91 95 0
-83 -87 -91 -95 0
84 88 92 96 0
-84 -88 -92 -96 0
97 101 105 109 0
-97 -101 -105 -109 0
98 102 106 110 0
-98 -102 -106 -110 0
99 103 107 111 0
-99 -103 -107 -111 0
100 104 108 112 0
-100 -104 -108 -112 0
113 117 121 125 0
-113 -117 -121 -125 0
114 118 122 126 0
-114 -118 -122 -126 0
115 119 123 127 0
-115 -119 -123 -127 0
116 120 124 128 0
-116 -120 -124 -128 0
129 133 137 141 0
-129 -133 -137 -141 0
130 134 138 142 0
-130 -134 -138 -142 0
131 135 139 143 0
-131 -135 -139 -143 0
132 136 140 144 0
-132 -136 -140 -144 0
145 149 153 157 0
-145 -149 -153 -157 0
146 150 154 158 0
-146 -150 -154 -158 0
147 151 155 159 0
-147 -151 -155 -159 0
148 152 156 160 0
-148 -152 -156 -160 0
161 165 169 173 0
-161 -165 -169 -173 0
162 166 170 174 0
-162 -166 -170 -174 0
163 167 171 175 0
-163 -167 -171 -175 0
164 168 172 176 0
-164 -168 -172 -176 0
177 181 185 189 0
-177 -181 -185 -189 0
178 182 186 190 0
-178 -182 -186 -190 0
179 183 187 191 0
-179 -183 -187 -191 0
180 184 188 192 0
-180 -184 -188 -192 0
193 197 201 205 0
-193 -197 -201 -205 0
194 198 202 206 0
-194 -198 -202 -206 0
195 199 203 207 0
-195 -199 -203 -207 0
196 200 204 208 0
-196 -200 -204 -208 0
209 213 217 221 0
-209 -213 -217 -221 0
210 214 218 222 0
-210 -214 -218 -222 0
211 215 219 223 0
-211 -215 -219 -223 0
212 216 220 224 0
-212 -216 -220 -224 0
225 229 233 237 0
-225 -229 -233 -237 0
226 230 234 238 0
-226 -230 -234 -238 0
227 231 235 239 0
-227 -231 -235 -239 0
228 232 236 240 0
-228 -232 -236 -240 0
241 245 249 253 0
-241 -245 -249 -253 0
242 246 250 254 0
-242 -246 -250 -254 0
243 247 251 255 0
-243 -247 -251 -255 0
244 248 252 256 0
-244 -248 -252 -256 0
1 6 11 16 0
-1 -6 -11 -16 0
17 22 27 32 0
-17 -22 -27 -32 0
33 38 43 48 0
-33 -38 -43 -48 0
49 54 59 64 0
-49 -54 -59 -64 0
65 70 75 80 0
-65 -70 -75 -80 0
81 86 91 96 0
-81 -86 -91 -96 0
97 102 107 112 0
-97 -102 -107 -112 0
113 118 123 128 0
-113 -118 -123 -128 0
129 134 139 144 0
-129 -134 -139 -144 0
145 150 155 160 0
-145 -150 -155 -160 0
161 166 171 176 0
-161 -166 -171 -176 0
177 182 187 192 0
-177 -182 -187 -192 0
193 198 203 208 0
-193 -198 -203 -208 0
209 214 219 224 0
-209 -214 -219 -224 0
225 230 235 240 0
-225 -230 -235 -240 0
241 246 251 256 0
-241 -246 -251 -256 0
1 17 33 49 0
-1 -17 -33 -49 0
2 18 34 50 0
-2 -18 -34 -50 0
3 19 35 51 0
-3 -19 -35 -51 0
4 20 36 52 0
-4 -20 -36 -52 0
5 21 37 53 0
-5 -21 -37 -53 0
6 22 38 54 0
-6 -22 -38 -54 0
7 23 39 55 0
-7 -23 -39 -55 0
8 24 40 56 0
-8 -24 -40 -56 0
9 25 41 57 0
-9 -25 -41 -57 0
10 26 42 58 0
-10 -26 -42 -58 0
11 27 43 59 0
-11 -27 -43 -59 0
12 28 44 60 0
-12 -28 -44 -60 0
13 29 45 61 0
-13 -29 -45 -61 0
14 30 46 62 0
-14 -30 -46 -62 0
15 31 47 63 0
-15 -31 -47 -63 0
16 32 48 64 0
-16 -32 -48 -64 0
65 81 97 113 0
-65 -81 -97 -113 0
66 82 98 114 0
-66 -82 -98 -114 0
67 83 99 115 0
-67 -83 -99 -115 0
68 84 100 116 0
-68 -84 -100 -116 0
69 85 101 117 0
-69 -85 -101 -117 0
70 86 102 118 0
-70 -86 -102 -118 0
71 87 103 119 0
-71 -87 -103 -119 0
72 88 104 120 0
-72 -88 -104 -120 0
73 89 105 121 0
-73 -89 -105 -121 0
74 90 106 122 0
-74 -90 -106 -122 0
75 91 107 123 0
-75 -91 -107 -123 0
76 92 108 124 0
-76 -92 -108 -124 0
77 93 109 125 0
-77 -93 -109 -125 0
78 94 110 126 0
-78 -94 -110 -126 0
79 95 111 127 0
-79 -95 -111 -127 0
80 96 112 128 0
-80 -96 -112 -128 0
129 145 161 177 0
-129 -145 -161 -177 0
130 146 162 178 0
-130 -146 -162 -178 0
131 147 163 179 0
-131 -147 -163 -179 0
132 148 164 180 0
-132 -148 -164 -180 0
133 149 165 181 0
-133 -149 -165 -181 0
134 150 166 182 0
-134 -150 -166 -182 0
135 151 167 183 0
-135 -151 -167 -183 0
136 152 168 184 0
-136 -152 -168 -184 0
137 153 169 185 0
-137 -153 -169 -185 0
138 154 170 186 0
-138 -154 -170 -186 0
139 155 171 187 0
-139 -155 -171 -187 0
140 156 172 188 0
-140 -156 -172 -188 0
141 157 173 189 0
-141 -157 -173 -189 0
142 158 174 190 0
-142 -158 -174 -190 0
143 159 175 191 0
-143 -159 -175 -191 0
144 160 176 192 0
-144 -160 -176 -192 0
193 209 225 241 0
-193 -209 -225 -241 0
194 210 226 242 0
-194 -210 -226 -242 0
195 211 227 243 0
-195 -211 -227 -243 0
196 212 228 244 0
-196 -212 -228 -244 0
197 213 229 245 0
-197 -213 -229 -245 0
198 214 230 246 0
-198 -214 -230 -246 0
199 215 231 247 0
-199 -215 -231 -247 0
200 216 232 248 0
-200 -216 -232 -248 0
201 217 233 249 0
-201 -217 -233 -249 0
202 218 234 250 0
-202 -218 -234 -250 0
203 219 235 251 0
-203 -219 -235 -251 0
204 220 236 252 0
-204 -220 -236 -252 0
205 221 237 253 0
-205 -221 -237 -253 0
206 222 238 254 0
-206 -222 -238 -254 0
207 223 239 255 0
-207 -223 -239 -255 0
208 224 240 256 0
-208 -224 -240 -256 0
1 18 35 52 0
-1 -18 -35 -52 0
5 22 39 56 0
-5 -22 -39 -56 0
9 26 43 60 0
-9 -26 -43 -60 0
13 30 47 64 0
-13 -30 -47 -64 0
65 82 99 116 0
-65 -82 -99 -116 0
69 86 103 120 0
-69 -86 -103 -120 0
73 90 107 124 0
-73 -90 -107 -124 0
77 94 111 128 0
-77 -94 -111 -128 0
129 146 163 180 0
-129 -146 -163 -180 0
133 150 167 184 0
-133 -150 -167 -184 0
137 154 171 188 0
-137 -154 -171 -188 0
141 158 175 192 0
-141 -158 -175 -192 0
193 210 227 244 0
-193 -210 -227 -244 0
197 214 231 248 0
-197 -214 -231 -248 0
201 218 235 252 0
-201 -218 -235 -252 0
205 222 239 256 0
-205 -222 -239 -256 0
1 21 41 61 0
-1 -21 -41 -61 0
2 22 42 62 0
-2 -22 -42 -62 0
3 23 43 63 0
-3 -23 -43 -63 0
4 24 44 64 0
-4 -24 -44 -64 0
65 85 105 125 0
-65 -85 -105 -125 0
66 86 106 126 0
-66 -86 -106 -126 0
67 87 107 127 0
-67 -87 -107 -127 0
68 88 108 128 0
-68 -88 -108 -128 0
129 149 169 189 0
-129 -149 -169 -189 0
130 150 170 190 0
-130 -150 -170 -190 0
131 151 171 191 0
-131 -151 -171 -191 0
132 152 172 192 0
-132 -152 -172 -192 0
193 213 233 253 0
-193 -213 -233 -253 0
194 214 234 254 0
-194 -214 -234 -254 0
195 215 235 255 0
-195 -215 -235 -255 0
196 216 236 256 0
-196 -216 -236 -256 0
1 22 43 64 0
-1 -22 -43 -64 0
65 86 107 128 0
-65 -86 -107 -128 0
129 150 171 192 0
-129 -150 -171 -192 0
193 214 235 256 0
-193 -214 -235 -256 0
1 65 129 193 0
-1 -65 -129 -193 0
2 66 130 194 0
-2 -66 -130 -194 0
3 67 131 195 0
-3 -67 -131 -195 0
4 68 132 196 0
-4 -68 -132 -196 0
5 69 133 197 0
-5 -69 -133 -197 0
6 70 134 198 0
-6 -70 -134 -198 0
7 71 135 199 0
-7 -71 -135 -199 0
8 72 136 200 0
-8 -72 -136 -200 0
9 73 137 201 0
-9 -73 -137 -201 0
10 74 138 202 0
-10 -74 -138 -202 0
11 75 139 203 0
-11 -75 -139 -203 0
12 76 140 204 0
-12 -76 -140 -204 0
13 77 141 205 0
-13 -77 -141 -205 0
14 78 142 206 0
-14 -78 -142 -206 0
15 79 143 207 0
-15 -79 -143 -207 0
16 80 144 208 0
-16 -80 -144 -208 0
17 81 145 209 0
-17 -81 -145 -209 0
18 82 146 210 0
-18 -82 -146 -210 0
19 83 147 211 0
-19 -83 -147 -211 0
20 84 148 212 0
-20 -84 -148 -212 0
21 85 149 213 0
-21 -85 -149 -213 0
22 86 150 214 0
-22 -86 -150 -214 0
23 87 151 215 0
-23 -87 -151 -215 0
24 88 152 216 0
-24 -88 -152 -216 0
25 89 153 217 0
-25 -89 -153 -217 0
26 90 154 218 0
-26 -90 -154 -218 0
27 91 155 219 0
-27 -91 -155 -219 0
28 92 156 220 0
-28 -92 -156 -220 0
29 93 157 221 0
-29 -93 -157 -221 0
30 94 158 222 0
-30 -94 -158 -222 0
31 95 159 223 0
-31 -95 -159 -223 0
32 96 160 224 0
-32 -96 -160 -224 0
33 97 161 225 0
-33 -97 -161 -225 0
34 98 162 226 0
-34 -98 -162 -226 0
35 99 163 227 0
-35 -99 -163 -227 0
36 100 164 228 0
-36 -100 -164 -228 0
37 101 165 229 0
-37 -101 -165 -229 0
38 102 166 230 0
-38 -102 -166 -230 0
39 103 167 231 0
-39 -103 -167 -231 0
40 104 168 232 0
-40 -104 -168 -232 0
41 105 169 233 0
-41 -105 -169 -233 0
42 106 170 234 0
-42 -106 -170 -234 0
43 107 171 235 0
-43 -107 -171 -235 0
44 108 172 236 0
-44 -108 -172 -236 0
45 109 173 237 0
-45 -109 -173 -237 0
46 110 174 238 0
-46 -110 -174 -238 0
47 111 175 239 0
-47 -111 -175 -239 0
48 112 176 240 0
-48 -112 -176 -240 0
49 113 177 241 0
-49 -113 -177 -241 0
50 114 178 242 0
-50 -114 -178 -242 0
51 115 179 243 0
-51 -115 -179 -243 0
52 116 180 244 0
-52 -116 -180 -244 0
53 117 181 245 0
-53 -117 -181 -245 0
54 118 182 246 0
-54 -118 -182 -246 0
55 119 183 247 0
-55 -119 -183 -247 0
56 120 184 248 0
-56 -120 -184 -248 0
57 121 185 249 0
-57 -121 -185 -249 0
58 122 186 250 0
-58 -122 -186 -250 0
59 123 187 251 0
-59 -123 -187 -251 0
60 124 188 252 0
-60 -124 -188 -252 0
61 125 189 253 0
-61 -125 -189 -253 0
62 126 190 254 0
-62 -126 -190 -254 0
63 127 191 255 0
-63 -127 -191 -255 0
64 128 192 256 0
-64 -128 -192 -256 0
1 66 131 196 0
-1 -66 -131 -196 0
5 70 135 200 0
-5 -70 -135 -200 0
9 74 139 204 0
-9 -74 -139 -204 0
13 78 143 208 0
-13 -78 -143 -208 0
17 82 147 212 0
-17 -82 -147 -212 0
21 86 151 216 0
-21 -86 -151 -216 0
25 90 155 220 0
-25 -90 -155 -220 0
29 94 159 224 0
-29 -94 -159 -224 0
33 98 163 228 0
-33 -98 -163 -228 0
37 102 167 232 0
-37 -102 -167 -232 0
41 106 171 236 0
-41 -106 -171 -236 0
45 110 175 240 0
-45 -110 -175 -240 0
49 114 179 244 0
-49 -114 -179 -244 0
53 118 183 248 0
-53 -118 -183 -248 0
57 122 187 252 0
-57 -122 -187 -252 0
61 126 191 256 0
-61 -126 -191 -256 0
1 69 137 205 0
-1 -69 -137 -205 0
2 70 138 206 0
-2 -70 -138 -206 0
3 71 139 207 0
-3 -71 -139 -207 0
4 72 140 208 0
-4 -72 -140 -208 0
17 85 153 221 0
-17 -85 -153 -221 0
18 86 154 222 0
-18 -86 -154 -222 0
19 87 155 223 0
-19 -87 -155 -223 0
20 88 156 224 0
-20 -88 -156 -224 0
33 101 169 237 0
-33 -101 -169 -237 0
34 102 170 238 0
-34 -102 -170 -238 0
35 103 171 239 0
-35 -103 -171 -239 0
36 104 172 240 0
-36 -104 -172 -240 0
49 117 185 253 0
-49 -117 -185 -253 0
50 118 186 254 0
-50 -118 -186 -254 0
51 119 187 255 0
-51 -119 -187 -255 0
52 120 188 256 0
-52 -120 -188 -256 0
1 70 139 208 0
-1 -70 -139 -208 0
17 86 155 224 0
-17 -86 -155 -224 0
33 102 171 240 0
-33 -102 -171 -240 0
49 118 187 256 0
-49 -118 -187 -256 0
1 81 161 241 0
-1 -81 -161 -241 0
2 82 162 242 0
-2 -82 -162 -242 0
3 83 163 243 0
-3 -83 -163 -243 0
4 84 164 244 0
-4 -84 -164 -244 0
5 85 165 245 0
-5 -85 -165 -245 0
6 86 166 246 0
-6 -86 -166 -246 0
7 87 167 247 0
-7 -87 -167 -247 0
8 88 168 248 0
-8 -88 -168 -248 0
9 89 169 249 0
-9 -89 -169 -249 0
10 90 170 250 0
-10 -90 -170 -250 0
11 91 171 251 0
-11 -91 -171 -251 0
12 92 172 252 0
-12 -92 -172 -252 0
13 93 173 253 0
-13 -93 -173 -253 0
14 94 174 254 0
-14 -94 -174 -254 0
15 95 175 255 0
-15 -95 -175 -255 0
16 96 176 256 0
-16 -96 -176 -256 0
1 82 163 244 0
-1 -82 -163 -244 0
5 86 167 248 0
-5 -86 -167 -248 0
9 90 171 252 0
-9 -90 -171 -252 0
13 94 175 256 0
-13 -94 -175 -256 0
1 85 169 253 0
-1 -85 -169 -253 0
2 86 170 254 0
-2 -86 -170 -254 0
3 87 171 255 0
-3 -87 -171 -255 0
4 88 172 256 0
-4 -88 -172 -256 0
1 86 171 256 0
-1 -86 -171 -256 0
